p edge 96 912
e 1 2
e 1 3
e 1 15
e 1 16
e 1 17
e 1 18
e 1 19
e 1 31
e 1 32
e 1 33
e 1 34
e 1 35
e 1 47
e 1 48
e 2 3
e 2 4
e 2 16
e 2 17
e 2 18
e 2 19
e 2 20
e 2 32
e 2 33
e 2 34
e 2 35
e 2 36
e 2 48
e 3 4
e 3 5
e 3 17
e 3 18
e 3 19
e 3 20
e 3 21
e 3 33
e 3 34
e 3 35
e 3 36
e 3 37
e 4 5
e 4 6
e 4 18
e 4 19
e 4 20
e 4 21
e 4 22
e 4 34
e 4 35
e 4 36
e 4 37
e 4 38
e 5 6
e 5 7
e 5 19
e 5 20
e 5 21
e 5 22
e 5 23
e 5 35
e 5 36
e 5 37
e 5 38
e 5 39
e 6 7
e 6 8
e 6 20
e 6 21
e 6 22
e 6 23
e 6 24
e 6 36
e 6 37
e 6 38
e 6 39
e 6 40
e 7 8
e 7 9
e 7 21
e 7 22
e 7 23
e 7 24
e 7 25
e 7 37
e 7 38
e 7 39
e 7 40
e 7 41
e 8 9
e 8 10
e 8 22
e 8 23
e 8 24
e 8 25
e 8 26
e 8 38
e 8 39
e 8 40
e 8 41
e 8 42
e 9 10
e 9 11
e 9 23
e 9 24
e 9 25
e 9 26
e 9 27
e 9 39
e 9 40
e 9 41
e 9 42
e 9 43
e 10 11
e 10 12
e 10 24
e 10 25
e 10 26
e 10 27
e 10 28
e 10 40
e 10 41
e 10 42
e 10 43
e 10 44
e 11 12
e 11 13
e 11 25
e 11 26
e 11 27
e 11 28
e 11 29
e 11 41
e 11 42
e 11 43
e 11 44
e 11 45
e 12 13
e 12 14
e 12 26
e 12 27
e 12 28
e 12 29
e 12 30
e 12 42
e 12 43
e 12 44
e 12 45
e 12 46
e 13 14
e 13 15
e 13 27
e 13 28
e 13 29
e 13 30
e 13 31
e 13 43
e 13 44
e 13 45
e 13 46
e 13 47
e 14 15
e 14 16
e 14 28
e 14 29
e 14 30
e 14 31
e 14 32
e 14 44
e 14 45
e 14 46
e 14 47
e 14 48
e 15 16
e 15 17
e 15 29
e 15 30
e 15 31
e 15 32
e 15 33
e 15 45
e 15 46
e 15 47
e 15 48
e 16 17
e 16 18
e 16 30
e 16 31
e 16 32
e 16 33
e 16 34
e 16 46
e 16 47
e 16 48
e 17 18
e 17 19
e 17 31
e 17 32
e 17 33
e 17 34
e 17 35
e 17 47
e 17 48
e 17 49
e 17 50
e 17 51
e 17 63
e 17 64
e 18 19
e 18 20
e 18 32
e 18 33
e 18 34
e 18 35
e 18 36
e 18 48
e 18 49
e 18 50
e 18 51
e 18 52
e 18 64
e 19 20
e 19 21
e 19 33
e 19 34
e 19 35
e 19 36
e 19 37
e 19 49
e 19 50
e 19 51
e 19 52
e 19 53
e 20 21
e 20 22
e 20 34
e 20 35
e 20 36
e 20 37
e 20 38
e 20 50
e 20 51
e 20 52
e 20 53
e 20 54
e 21 22
e 21 23
e 21 35
e 21 36
e 21 37
e 21 38
e 21 39
e 21 51
e 21 52
e 21 53
e 21 54
e 21 55
e 22 23
e 22 24
e 22 36
e 22 37
e 22 38
e 22 39
e 22 40
e 22 52
e 22 53
e 22 54
e 22 55
e 22 56
e 23 24
e 23 25
e 23 37
e 23 38
e 23 39
e 23 40
e 23 41
e 23 53
e 23 54
e 23 55
e 23 56
e 23 57
e 24 25
e 24 26
e 24 38
e 24 39
e 24 40
e 24 41
e 24 42
e 24 54
e 24 55
e 24 56
e 24 57
e 24 58
e 25 26
e 25 27
e 25 39
e 25 40
e 25 41
e 25 42
e 25 43
e 25 55
e 25 56
e 25 57
e 25 58
e 25 59
e 26 27
e 26 28
e 26 40
e 26 41
e 26 42
e 26 43
e 26 44
e 26 56
e 26 57
e 26 58
e 26 59
e 26 60
e 27 28
e 27 29
e 27 41
e 27 42
e 27 43
e 27 44
e 27 45
e 27 57
e 27 58
e 27 59
e 27 60
e 27 61
e 28 29
e 28 30
e 28 42
e 28 43
e 28 44
e 28 45
e 28 46
e 28 58
e 28 59
e 28 60
e 28 61
e 28 62
e 29 30
e 29 31
e 29 43
e 29 44
e 29 45
e 29 46
e 29 47
e 29 59
e 29 60
e 29 61
e 29 62
e 29 63
e 30 31
e 30 32
e 30 44
e 30 45
e 30 46
e 30 47
e 30 48
e 30 60
e 30 61
e 30 62
e 30 63
e 30 64
e 31 32
e 31 33
e 31 45
e 31 46
e 31 47
e 31 48
e 31 49
e 31 61
e 31 62
e 31 63
e 31 64
e 32 33
e 32 34
e 32 46
e 32 47
e 32 48
e 32 49
e 32 50
e 32 62
e 32 63
e 32 64
e 33 34
e 33 35
e 33 47
e 33 48
e 33 49
e 33 50
e 33 51
e 33 63
e 33 64
e 33 65
e 33 66
e 33 67
e 33 79
e 33 80
e 34 35
e 34 36
e 34 48
e 34 49
e 34 50
e 34 51
e 34 52
e 34 64
e 34 65
e 34 66
e 34 67
e 34 68
e 34 80
e 35 36
e 35 37
e 35 49
e 35 50
e 35 51
e 35 52
e 35 53
e 35 65
e 35 66
e 35 67
e 35 68
e 35 69
e 36 37
e 36 38
e 36 50
e 36 51
e 36 52
e 36 53
e 36 54
e 36 66
e 36 67
e 36 68
e 36 69
e 36 70
e 37 38
e 37 39
e 37 51
e 37 52
e 37 53
e 37 54
e 37 55
e 37 67
e 37 68
e 37 69
e 37 70
e 37 71
e 38 39
e 38 40
e 38 52
e 38 53
e 38 54
e 38 55
e 38 56
e 38 68
e 38 69
e 38 70
e 38 71
e 38 72
e 39 40
e 39 41
e 39 53
e 39 54
e 39 55
e 39 56
e 39 57
e 39 69
e 39 70
e 39 71
e 39 72
e 39 73
e 40 41
e 40 42
e 40 54
e 40 55
e 40 56
e 40 57
e 40 58
e 40 70
e 40 71
e 40 72
e 40 73
e 40 74
e 41 42
e 41 43
e 41 55
e 41 56
e 41 57
e 41 58
e 41 59
e 41 71
e 41 72
e 41 73
e 41 74
e 41 75
e 42 43
e 42 44
e 42 56
e 42 57
e 42 58
e 42 59
e 42 60
e 42 72
e 42 73
e 42 74
e 42 75
e 42 76
e 43 44
e 43 45
e 43 57
e 43 58
e 43 59
e 43 60
e 43 61
e 43 73
e 43 74
e 43 75
e 43 76
e 43 77
e 44 45
e 44 46
e 44 58
e 44 59
e 44 60
e 44 61
e 44 62
e 44 74
e 44 75
e 44 76
e 44 77
e 44 78
e 45 46
e 45 47
e 45 59
e 45 60
e 45 61
e 45 62
e 45 63
e 45 75
e 45 76
e 45 77
e 45 78
e 45 79
e 46 47
e 46 48
e 46 60
e 46 61
e 46 62
e 46 63
e 46 64
e 46 76
e 46 77
e 46 78
e 46 79
e 46 80
e 47 48
e 47 49
e 47 61
e 47 62
e 47 63
e 47 64
e 47 65
e 47 77
e 47 78
e 47 79
e 47 80
e 48 49
e 48 50
e 48 62
e 48 63
e 48 64
e 48 65
e 48 66
e 48 78
e 48 79
e 48 80
e 49 50
e 49 51
e 49 63
e 49 64
e 49 65
e 49 66
e 49 67
e 49 79
e 49 80
e 49 81
e 49 82
e 49 83
e 49 95
e 49 96
e 50 51
e 50 52
e 50 64
e 50 65
e 50 66
e 50 67
e 50 68
e 50 80
e 50 81
e 50 82
e 50 83
e 50 84
e 50 96
e 51 52
e 51 53
e 51 65
e 51 66
e 51 67
e 51 68
e 51 69
e 51 81
e 51 82
e 51 83
e 51 84
e 51 85
e 52 53
e 52 54
e 52 66
e 52 67
e 52 68
e 52 69
e 52 70
e 52 82
e 52 83
e 52 84
e 52 85
e 52 86
e 53 54
e 53 55
e 53 67
e 53 68
e 53 69
e 53 70
e 53 71
e 53 83
e 53 84
e 53 85
e 53 86
e 53 87
e 54 55
e 54 56
e 54 68
e 54 69
e 54 70
e 54 71
e 54 72
e 54 84
e 54 85
e 54 86
e 54 87
e 54 88
e 55 56
e 55 57
e 55 69
e 55 70
e 55 71
e 55 72
e 55 73
e 55 85
e 55 86
e 55 87
e 55 88
e 55 89
e 56 57
e 56 58
e 56 70
e 56 71
e 56 72
e 56 73
e 56 74
e 56 86
e 56 87
e 56 88
e 56 89
e 56 90
e 57 58
e 57 59
e 57 71
e 57 72
e 57 73
e 57 74
e 57 75
e 57 87
e 57 88
e 57 89
e 57 90
e 57 91
e 58 59
e 58 60
e 58 72
e 58 73
e 58 74
e 58 75
e 58 76
e 58 88
e 58 89
e 58 90
e 58 91
e 58 92
e 59 60
e 59 61
e 59 73
e 59 74
e 59 75
e 59 76
e 59 77
e 59 89
e 59 90
e 59 91
e 59 92
e 59 93
e 60 61
e 60 62
e 60 74
e 60 75
e 60 76
e 60 77
e 60 78
e 60 90
e 60 91
e 60 92
e 60 93
e 60 94
e 61 62
e 61 63
e 61 75
e 61 76
e 61 77
e 61 78
e 61 79
e 61 91
e 61 92
e 61 93
e 61 94
e 61 95
e 62 63
e 62 64
e 62 76
e 62 77
e 62 78
e 62 79
e 62 80
e 62 92
e 62 93
e 62 94
e 62 95
e 62 96
e 63 64
e 63 65
e 63 77
e 63 78
e 63 79
e 63 80
e 63 81
e 63 93
e 63 94
e 63 95
e 63 96
e 64 65
e 64 66
e 64 78
e 64 79
e 64 80
e 64 81
e 64 82
e 64 94
e 64 95
e 64 96
e 65 66
e 65 67
e 65 79
e 65 80
e 65 81
e 65 82
e 65 83
e 65 95
e 65 96
e 66 67
e 66 68
e 66 80
e 66 81
e 66 82
e 66 83
e 66 84
e 66 96
e 67 68
e 67 69
e 67 81
e 67 82
e 67 83
e 67 84
e 67 85
e 68 69
e 68 70
e 68 82
e 68 83
e 68 84
e 68 85
e 68 86
e 69 70
e 69 71
e 69 83
e 69 84
e 69 85
e 69 86
e 69 87
e 70 71
e 70 72
e 70 84
e 70 85
e 70 86
e 70 87
e 70 88
e 71 72
e 71 73
e 71 85
e 71 86
e 71 87
e 71 88
e 71 89
e 72 73
e 72 74
e 72 86
e 72 87
e 72 88
e 72 89
e 72 90
e 73 74
e 73 75
e 73 87
e 73 88
e 73 89
e 73 90
e 73 91
e 74 75
e 74 76
e 74 88
e 74 89
e 74 90
e 74 91
e 74 92
e 75 76
e 75 77
e 75 89
e 75 90
e 75 91
e 75 92
e 75 93
e 76 77
e 76 78
e 76 90
e 76 91
e 76 92
e 76 93
e 76 94
e 77 78
e 77 79
e 77 91
e 77 92
e 77 93
e 77 94
e 77 95
e 78 79
e 78 80
e 78 92
e 78 93
e 78 94
e 78 95
e 78 96
e 79 80
e 79 81
e 79 93
e 79 94
e 79 95
e 79 96
e 80 81
e 80 82
e 80 94
e 80 95
e 80 96
e 81 82
e 81 83
e 81 95
e 81 96
e 82 83
e 82 84
e 82 96
e 83 84
e 83 85
e 84 85
e 84 86
e 85 86
e 85 87
e 86 87
e 86 88
e 87 88
e 87 89
e 88 89
e 88 90
e 89 90
e 89 91
e 90 91
e 90 92
e 91 92
e 91 93
e 92 93
e 92 94
e 93 94
e 93 95
e 94 95
e 94 96
e 95 96
